20J6M/DAT/20J6MUTL-9.dat
20 6
25.439 25.439
14.8699 14.8699
16.2861 16.2861
34.9886 34.9886
29.8515 29.8515
16.5682 16.5682
49.4267 49.4267
47.7121 47.7121
14.6193 14.6193
8.9198 8.9198
44.4365 44.4365
38.8582 38.8582
21.2165 21.2165
3.4504 3.4504
3.9769 3.9769
12.5128 12.5128
34.1644 34.1644
11.5974 11.5974
1.0332 1.0332
1.6581 1.6581
53.9482