20J6M/SOL/20J6MUTL-9.sol
solution status: optimal solution found
objective value:                              53.9482
x#1#1                                               1 	(obj:0)
x#2#3                               0.342981459189369 	(obj:0)
x#4#4                               0.310501134655288 	(obj:0)
x#5#5                                               1 	(obj:0)
x#7#1                               0.147545759680497 	(obj:0)
x#7#2                               0.192440523037144 	(obj:0)
x#7#6                               0.126168649737895 	(obj:0)
x#8#6                                               1 	(obj:0)
x#9#3                                               1 	(obj:0)
x#10#4                                              1 	(obj:0)
x#11#2                                              1 	(obj:0)
x#12#5                              0.620118790885836 	(obj:0)
x#13#1                                              1 	(obj:0)
x#14#3                                              1 	(obj:0)
x#15#3                                              1 	(obj:0)
x#16#3                                              1 	(obj:0)
x#17#4                                              1 	(obj:0)
x#18#3                                              1 	(obj:0)
x#19#3                                              1 	(obj:0)
x#20#3                                              1 	(obj:0)
z                                             53.9482 	(obj:1)
